experiment/data/hgs-res/Vrp-Set-Golden-n481/Vrp-Set-Golden-n481-hgs/1.hgs1.tour
Route #1: 22 21 61 62 63 103 102 142 182 222 262 302 342 382 422 462 463 423 383 343 303 263 223 183 143 144 145 146 147 107 106 105 104 64 65 66 26 25 24 23
Route #2: 27 67 68 108 148 188 187 186 185 184 224 264 304 344 384 424 464 465 425 385 345 305 265 225 226 266 306 346 386 426 466 467 427 387 347 307 267 227 228 268 308 348 388 428 468 469 429 389 349 309 269 229 189 149 109 69 70 30 29 28
Route #3: 32 31 71 111 110 150 151 191 190 230 270 310 350 390 430 470 471 431 391 351 311 271 231 232 272 312 352 392 432 472 473 433 393 353 313 273 233 193 192 152 153 113 112 72 73 74 34 33
Route #4: 37 77 117 157 197 237 277 317 357 397 437 477 476 436 396 356 316 276 236 235 275 315 355 395 435 475 474 434 394 354 314 274 234 194 195 196 156 155 154 114 115 116 76 75 35 36
Route #5: 40 80 79 119 159 199 200 161 201 241 281 321 361 401 441 480 440 400 360 320 280 240 239 279 319 359 399 439 479 478 438 398 358 318 278 238 198 158 118 78 38 39
Route #6: 2 1 41 81 120 160 121 122 123 163 162 202 242 282 322 362 402 442 443 403 363 323 283 243 203 204 244 284 324 364 404 444 445 405 365 325 285 245 205 165 164 124 84 83 82 42 43 44 4 3
Route #7: 8 48 88 89 129 169 209 249 289 329 369 409 449 448 408 368 328 288 248 208 207 247 287 327 367 407 447 446 406 366 326 286 246 206 166 167 168 128 127 126 125 85 86 87 47 46 45 5 6 7
Route #8: 12 11 10 9 49 50 51 91 90 130 131 171 170 210 250 290 330 370 410 450 451 411 371 331 291 251 211 212 252 292 332 372 412 452 453 413 373 333 293 253 213 173 172 132 92 52 53 13
Route #9: 15 16 17 57 56 55 95 96 97 137 136 135 175 176 177 217 257 297 337 377 417 457 456 416 376 336 296 256 216 215 255 295 335 375 415 455 454 414 374 334 294 254 214 174 134 133 93 94 54 14
Route #10: 19 20 60 59 99 100 101 141 140 139 179 180 181 221 261 301 341 381 421 461 460 420 380 340 300 260 220 219 259 299 339 379 419 459 458 418 378 338 298 258 218 178 138 98 58 18
Cost 13624.5
